c random cnf
p cnf 50 50
28 -34 0
-17 19 0
-6 -28 0
31 -42 0
-34 -40 0
-11 42 0
-11 -34 0
-18 -19 0
-13 44 0
4 -50 0
4 -7 0
29 30 0
24 27 0
-19 46 0
-1 -49 0
-14 -18 0
-39 -43 0
8 46 0
-33 -37 0
35 -40 0
10 25 0
-3 -28 0
-18 -31 0
-8 -28 0
-5 -40 0
17 38 0
12 37 0
-35 -41 0
-2 23 0
-39 -41 0
-25 -30 0
7 9 0
14 20 0
-30 34 0
5 43 0
-26 -28 0
16 30 0
19 -34 0
11 49 0
12 -13 0
-5 22 0
-7 11 0
10 16 0
-11 -17 0
6 44 0
5 -6 0
12 -19 0
-14 18 0
4 6 0
37 -48 0
